161
0 98 9 29 104 113 7 16 126 14 
49 153 84 37 18 108 115 148 102 74 
110 4 141 103 143 151 120 136 125 48 
123 70 95 112 52 63 156 46 117 69 
54 140 68 12 2 13 11 78 3 87 
34 62 10 67 99 149 22 83 100 134 
128 131 39 47 6 5 55 57 133 147 
121 160 60 31 81 132 152 86 135 75 
23 142 32 26 58 77 106 88 159 36 
114 17 93 1 50 119 79 53 76 155 
51 145 28 8 30 73 158 97 92 35 
38 116 56 65 25 40 61 89 118 71 
80 41 27 15 127 105 150 101 72 64 
45 59 44 107 129 20 96 139 124 90 
42 91 111 43 122 85 109 33 154 66 
146 157 94 21 19 24 130 137 144 138 
82 
